/Users/snarasi2/.matplotlib is not a writable directory
Matplotlib created a temporary cache directory at /var/folders/s_/6c59kmq52ng_lrn3ml1_mg5m0000gt/T/matplotlib-243fvru1 because there was an issue with the default path (/Users/snarasi2/.matplotlib); it is highly recommended to set the MPLCONFIGDIR environment variable to a writable directory, in particular to speed up the import of Matplotlib and to better support multiprocessing.
Matplotlib is building the font cache; this may take a moment.
Ipopt 3.14.19: linear_solver=mumps
output_file=ipopt.out
file_print_level=12


******************************************************************************
This program contains Ipopt, a library for large-scale nonlinear optimization.
 Ipopt is released as open source code under the Eclipse Public License (EPL).
         For more information visit https://github.com/coin-or/Ipopt
******************************************************************************

This is Ipopt version 3.14.19, running with linear solver MUMPS 5.8.1.

Number of nonzeros in equality constraint Jacobian...:       70
Number of nonzeros in inequality constraint Jacobian.:        0
Number of nonzeros in Lagrangian Hessian.............:        0

Total number of variables............................:       30
                     variables with only lower bounds:        0
                variables with lower and upper bounds:        0
                     variables with only upper bounds:        0
Total number of equality constraints.................:       30
Total number of inequality constraints...............:        0
        inequality constraints with only lower bounds:        0
   inequality constraints with lower and upper bounds:        0
        inequality constraints with only upper bounds:        0

iter    objective    inf_pr   inf_du lg(mu)  ||d||  lg(rg) alpha_du alpha_pr  ls
   0  0.0000000e+00 1.00e+00 0.00e+00  -1.0 0.00e+00    -  0.00e+00 0.00e+00   0
   1  0.0000000e+00 1.11e-16 0.00e+00  -1.7 4.00e+00    -  1.00e+00 1.00e+00h  1

Number of Iterations....: 1

                                   (scaled)                 (unscaled)
Objective...............:   0.0000000000000000e+00    0.0000000000000000e+00
Dual infeasibility......:   0.0000000000000000e+00    0.0000000000000000e+00
Constraint violation....:   1.1102230246251565e-16    1.1102230246251565e-16
Variable bound violation:   0.0000000000000000e+00    0.0000000000000000e+00
Complementarity.........:   0.0000000000000000e+00    0.0000000000000000e+00
Overall NLP error.......:   1.1102230246251565e-16    1.1102230246251565e-16


Number of objective function evaluations             = 2
Number of objective gradient evaluations             = 2
Number of equality constraint evaluations            = 2
Number of inequality constraint evaluations          = 0
Number of equality constraint Jacobian evaluations   = 2
Number of inequality constraint Jacobian evaluations = 0
Number of Lagrangian Hessian evaluations             = 1
Total seconds in IPOPT                               = 0.009

EXIT: Optimal Solution Found.
Ipopt 3.14.19: linear_solver=mumps
output_file=ipopt.out
file_print_level=12


******************************************************************************
This program contains Ipopt, a library for large-scale nonlinear optimization.
 Ipopt is released as open source code under the Eclipse Public License (EPL).
         For more information visit https://github.com/coin-or/Ipopt
******************************************************************************

This is Ipopt version 3.14.19, running with linear solver MUMPS 5.8.1.

Number of nonzeros in equality constraint Jacobian...:       70
Number of nonzeros in inequality constraint Jacobian.:        0
Number of nonzeros in Lagrangian Hessian.............:        0

Total number of variables............................:       30
                     variables with only lower bounds:        0
                variables with lower and upper bounds:        0
                     variables with only upper bounds:        0
Total number of equality constraints.................:       30
Total number of inequality constraints...............:        0
        inequality constraints with only lower bounds:        0
   inequality constraints with lower and upper bounds:        0
        inequality constraints with only upper bounds:        0

iter    objective    inf_pr   inf_du lg(mu)  ||d||  lg(rg) alpha_du alpha_pr  ls
   0  0.0000000e+00 7.62e-04 0.00e+00  -1.0 0.00e+00    -  0.00e+00 0.00e+00   0
   1  0.0000000e+00 1.67e-16 0.00e+00  -5.7 7.25e-04    -  1.00e+00 1.00e+00h  1

Number of Iterations....: 1

                                   (scaled)                 (unscaled)
Objective...............:   0.0000000000000000e+00    0.0000000000000000e+00
Dual infeasibility......:   0.0000000000000000e+00    0.0000000000000000e+00
Constraint violation....:   1.6653345369377348e-16    1.6653345369377348e-16
Variable bound violation:   0.0000000000000000e+00    0.0000000000000000e+00
Complementarity.........:   0.0000000000000000e+00    0.0000000000000000e+00
Overall NLP error.......:   1.6653345369377348e-16    1.6653345369377348e-16


Number of objective function evaluations             = 2
Number of objective gradient evaluations             = 2
Number of equality constraint evaluations            = 2
Number of inequality constraint evaluations          = 0
Number of equality constraint Jacobian evaluations   = 2
Number of inequality constraint Jacobian evaluations = 0
Number of Lagrangian Hessian evaluations             = 1
Total seconds in IPOPT                               = 0.010

EXIT: Optimal Solution Found.
Ipopt 3.14.19: linear_solver=mumps
output_file=ipopt.out
file_print_level=12


******************************************************************************
This program contains Ipopt, a library for large-scale nonlinear optimization.
 Ipopt is released as open source code under the Eclipse Public License (EPL).
         For more information visit https://github.com/coin-or/Ipopt
******************************************************************************

This is Ipopt version 3.14.19, running with linear solver MUMPS 5.8.1.

Number of nonzeros in equality constraint Jacobian...:       70
Number of nonzeros in inequality constraint Jacobian.:        0
Number of nonzeros in Lagrangian Hessian.............:        0

Total number of variables............................:       30
                     variables with only lower bounds:        0
                variables with lower and upper bounds:        0
                     variables with only upper bounds:        0
Total number of equality constraints.................:       30
Total number of inequality constraints...............:        0
        inequality constraints with only lower bounds:        0
   inequality constraints with lower and upper bounds:        0
        inequality constraints with only upper bounds:        0

iter    objective    inf_pr   inf_du lg(mu)  ||d||  lg(rg) alpha_du alpha_pr  ls
   0  0.0000000e+00 7.62e-04 0.00e+00  -1.0 0.00e+00    -  0.00e+00 0.00e+00   0
   1  0.0000000e+00 1.11e-16 0.00e+00  -5.7 7.26e-04    -  1.00e+00 1.00e+00h  1

Number of Iterations....: 1

                                   (scaled)                 (unscaled)
Objective...............:   0.0000000000000000e+00    0.0000000000000000e+00
Dual infeasibility......:   0.0000000000000000e+00    0.0000000000000000e+00
Constraint violation....:   1.1102230246251565e-16    1.1102230246251565e-16
Variable bound violation:   0.0000000000000000e+00    0.0000000000000000e+00
Complementarity.........:   0.0000000000000000e+00    0.0000000000000000e+00
Overall NLP error.......:   1.1102230246251565e-16    1.1102230246251565e-16


Number of objective function evaluations             = 2
Number of objective gradient evaluations             = 2
Number of equality constraint evaluations            = 2
Number of inequality constraint evaluations          = 0
Number of equality constraint Jacobian evaluations   = 2
Number of inequality constraint Jacobian evaluations = 0
Number of Lagrangian Hessian evaluations             = 1
Total seconds in IPOPT                               = 0.013

EXIT: Optimal Solution Found.
Ipopt 3.14.19: linear_solver=mumps
output_file=ipopt.out
file_print_level=12


******************************************************************************
This program contains Ipopt, a library for large-scale nonlinear optimization.
 Ipopt is released as open source code under the Eclipse Public License (EPL).
         For more information visit https://github.com/coin-or/Ipopt
******************************************************************************

This is Ipopt version 3.14.19, running with linear solver MUMPS 5.8.1.

Number of nonzeros in equality constraint Jacobian...:      183
Number of nonzeros in inequality constraint Jacobian.:        0
Number of nonzeros in Lagrangian Hessian.............:        9

Total number of variables............................:       73
                     variables with only lower bounds:        0
                variables with lower and upper bounds:        3
                     variables with only upper bounds:        0
Total number of equality constraints.................:       73
Total number of inequality constraints...............:        0
        inequality constraints with only lower bounds:        0
   inequality constraints with lower and upper bounds:        0
        inequality constraints with only upper bounds:        0

iter    objective    inf_pr   inf_du lg(mu)  ||d||  lg(rg) alpha_du alpha_pr  ls
   0  0.0000000e+00 9.90e+01 0.00e+00  -1.0 0.00e+00    -  0.00e+00 0.00e+00   0
   1  0.0000000e+00 2.17e+00 1.09e-01  -1.0 1.01e+02    -  1.00e+00 9.90e-01H  1
   2  0.0000000e+00 3.32e-02 9.90e+00  -1.0 2.55e+00    -  1.00e+00 9.90e-01h  1
   3  0.0000000e+00 1.18e-06 3.66e-10  -1.0 3.72e-02    -  1.00e+00 1.00e+00h  1
   4  0.0000000e+00 5.95e-14 0.00e+00  -5.7 1.18e-06    -  1.00e+00 1.00e+00h  1

Number of Iterations....: 4

                                   (scaled)                 (unscaled)
Objective...............:   0.0000000000000000e+00    0.0000000000000000e+00
Dual infeasibility......:   0.0000000000000000e+00    0.0000000000000000e+00
Constraint violation....:   1.1901590823981678e-14    5.9507954119908391e-14
Variable bound violation:   0.0000000000000000e+00    0.0000000000000000e+00
Complementarity.........:   0.0000000000000000e+00    0.0000000000000000e+00
Overall NLP error.......:   1.1901590823981678e-14    5.9507954119908391e-14


Number of objective function evaluations             = 6
Number of objective gradient evaluations             = 5
Number of equality constraint evaluations            = 6
Number of inequality constraint evaluations          = 0
Number of equality constraint Jacobian evaluations   = 5
Number of inequality constraint Jacobian evaluations = 0
Number of Lagrangian Hessian evaluations             = 4
Total seconds in IPOPT                               = 0.051

EXIT: Optimal Solution Found.
Ipopt 3.14.19: linear_solver=mumps
output_file=ipopt.out
file_print_level=12


******************************************************************************
This program contains Ipopt, a library for large-scale nonlinear optimization.
 Ipopt is released as open source code under the Eclipse Public License (EPL).
         For more information visit https://github.com/coin-or/Ipopt
******************************************************************************

This is Ipopt version 3.14.19, running with linear solver MUMPS 5.8.1.

Number of nonzeros in equality constraint Jacobian...:      191
Number of nonzeros in inequality constraint Jacobian.:        0
Number of nonzeros in Lagrangian Hessian.............:       10

Total number of variables............................:       77
                     variables with only lower bounds:        1
                variables with lower and upper bounds:        6
                     variables with only upper bounds:        0
Total number of equality constraints.................:       74
Total number of inequality constraints...............:        0
        inequality constraints with only lower bounds:        0
   inequality constraints with lower and upper bounds:        0
        inequality constraints with only upper bounds:        0

iter    objective    inf_pr   inf_du lg(mu)  ||d||  lg(rg) alpha_du alpha_pr  ls
   0 -1.3050321e+00 1.00e-02 1.25e-01  -1.0 0.00e+00    -  0.00e+00 0.00e+00   0
   1 -1.2577213e+00 5.67e-02 1.23e-01  -1.0 2.14e+00    -  1.00e+00 1.00e+00f  1
   2 -1.2525172e+00 1.64e-03 9.17e-03  -1.7 1.60e-01    -  1.00e+00 1.00e+00h  1
   3 -1.2851900e+00 2.63e-02 6.71e-03  -2.5 1.37e+00    -  1.00e+00 1.00e+00h  1
   4 -1.3038606e+00 1.07e-02 1.24e-03  -3.8 8.64e-01    -  1.00e+00 1.00e+00h  1
   5 -1.3044318e+00 9.54e-06 1.14e-07  -3.8 5.10e-01    -  1.00e+00 1.00e+00h  1
   6 -1.3050234e+00 1.08e-05 1.41e-06  -5.7 2.75e-02    -  1.00e+00 1.00e+00h  1
   7 -1.3050321e+00 2.28e-09 2.70e-10  -8.6 4.14e-04    -  1.00e+00 1.00e+00h  1

Number of Iterations....: 7

                                   (scaled)                 (unscaled)
Objective...............:  -1.3050320665266226e+00   -1.3050320665266226e+00
Dual infeasibility......:   2.7031910043717744e-10    2.7031910043717744e-10
Constraint violation....:   2.2843096303404309e-09    2.2843096303404309e-09
Variable bound violation:   0.0000000000000000e+00    0.0000000000000000e+00
Complementarity.........:   2.5683733343296995e-09    2.5683733343296995e-09
Overall NLP error.......:   2.5683733343296995e-09    2.5683733343296995e-09


Number of objective function evaluations             = 8
Number of objective gradient evaluations             = 8
Number of equality constraint evaluations            = 8
Number of inequality constraint evaluations          = 0
Number of equality constraint Jacobian evaluations   = 8
Number of inequality constraint Jacobian evaluations = 0
Number of Lagrangian Hessian evaluations             = 7
Total seconds in IPOPT                               = 0.084

EXIT: Optimal Solution Found.
Number of Iterations....: 7

                                   (scaled)                 (unscaled)
Objective...............:  -1.3050320724385986e+00   -1.3050320724385986e+00
Dual infeasibility......:  1.2534543452796867e-01   1.2534543452796867e-01
Constraint violation....:  9.9999900000000003e-03   9.9999900000000003e-03
Complementarity.........:  4.4927890487986160e+00   4.4927890487986160e+00
Overall NLP error.......:  4.4927890487986160e+00   4.4927890487986160e+00

Number of objective function evaluations             = 8
Number of objective gradient evaluations             = 8
Number of equality constraint evaluations            = 8
Number of inequality constraint evaluations          = 0
Number of equality constraint Jacobian evaluations   = 8
Number of inequality constraint Jacobian evaluations = 0
Number of Lagrangian Hessian evaluations             = 7
Total CPU secs in IPOPT (w/o function evaluations)   = None
Total CPU secs in NLP function evaluations           = None
EXIT: Optimal Solution Found.
Optimal experiment values: 
\tTemperature values: [0.50, 0.00, 0.00]
FIM at optimal design:\n [[20.18515397]]
Objective value at optimal design: 1.31
['u[0]', 'u[1.0]', 'u[2]']
['Build Time', 'Experiment Design', 'Experiment Design Names', 'Experiment Output Names', 'Experiment Outputs', 'FIM', 'FIM Condition Number', 'Finite Difference Scheme', 'Finite Difference Step', 'Initialization Time', 'Measurement Error', 'Measurement Error Names', 'Nominal Parameter Scaling', 'Objective expression', 'Prior FIM', 'Sensitivity Matrix', 'Solve Time', 'Solver Status', 'Termination Condition', 'Termination Message', 'Unknown Parameter Names', 'Unknown Parameters', 'Wall-clock Time', 'log10 A-opt', 'log10 D-opt', 'log10 E-opt']
Solve time (s): 0.09880212496500462
Build time (s): 0.07996566698420793
Initialization time (s): 0.06577341607771814
Total wall time (s): 0.2445412080269307
